(set-logic QF_LIA)
(declare-fun x0 () Int)
(declare-fun x1 () Int)
(declare-fun x2 () Int)
(declare-fun x3 () Int)
(declare-fun x4 () Int)
(declare-fun x5 () Int)
(declare-fun x6 () Int)
(declare-fun x7 () Int)
(declare-fun x8 () Int)
(declare-fun x9 () Int)
(declare-fun A2 () Bool)
(declare-fun A6 () Bool)
(declare-fun A7 () Bool)
(declare-fun A8 () Bool)
(declare-fun A9 () Bool)
(assert (let ((.def_0 (* 1 x2))) (let ((.def_1 (< .def_0 (- 1)))) (let ((.def_2 (not .def_1))) (let ((.def_3 (* (- 1) x9))) (let ((.def_4 (* (- 1) x3))) (let ((.def_5 (+ .def_4 .def_3))) (let ((.def_6 (< .def_5 (- 1)))) (let ((.def_7 (not .def_6))) (let ((.def_8 (and .def_7 .def_2))) (let ((.def_9 (* (- 1) x0))) (let ((.def_10 (< .def_9 (- 1)))) (let ((.def_11 (not .def_10))) (let ((.def_12 (or A6 .def_11))) (let ((.def_13 (not .def_12))) (let ((.def_14 (or .def_13 .def_8))) (let ((.def_15 (not .def_14))) (let ((.def_16 (* 1 x1))) (let ((.def_17 (< .def_16 1))) (let ((.def_18 (not .def_17))) (let ((.def_19 (and .def_18 A2))) (let ((.def_20 (not A9))) (let ((.def_21 (not A2))) (let ((.def_22 (and .def_21 .def_20))) (let ((.def_23 (not .def_22))) (let ((.def_24 (or .def_23 .def_19))) (let ((.def_25 (or .def_24 .def_15))) (let ((.def_26 (* 1 x7))) (let ((.def_27 (+ .def_26 .def_9))) (let ((.def_28 (< .def_27 (- 1)))) (let ((.def_29 (or .def_20 .def_28))) (let ((.def_30 (not .def_29))) (let ((.def_31 (* (- 1) x4))) (let ((.def_32 (< .def_31 (- 1)))) (let ((.def_33 (not .def_32))) (let ((.def_34 (not A8))) (let ((.def_35 (and .def_34 .def_33))) (let ((.def_36 (not .def_35))) (let ((.def_37 (= .def_36 .def_30))) (let ((.def_38 (not .def_37))) (let ((.def_39 (or .def_34 A7))) (let ((.def_40 (not .def_39))) (let ((.def_41 (* 1 x0))) (let ((.def_42 (< .def_41 1))) (let ((.def_43 (not .def_42))) (let ((.def_44 (and .def_43 A8))) (let ((.def_45 (and .def_44 .def_40))) (let ((.def_46 (and .def_45 .def_38))) (let ((.def_47 (and .def_46 .def_25))) (let ((.def_48 (<= x9 1))) (let ((.def_49 (<= 0 x9))) (let ((.def_50 (<= x8 1))) (let ((.def_51 (<= 0 x8))) (let ((.def_52 (<= x7 1))) (let ((.def_53 (<= 0 x7))) (let ((.def_54 (<= x6 1))) (let ((.def_55 (<= 0 x6))) (let ((.def_56 (<= x5 1))) (let ((.def_57 (<= 0 x5))) (let ((.def_58 (<= x4 1))) (let ((.def_59 (<= 0 x4))) (let ((.def_60 (<= x3 1))) (let ((.def_61 (<= 0 x3))) (let ((.def_62 (<= x2 1))) (let ((.def_63 (<= 0 x2))) (let ((.def_64 (<= x1 1))) (let ((.def_65 (<= 0 x1))) (let ((.def_66 (<= x0 1))) (let ((.def_67 (<= 0 x0))) (let ((.def_68 (and .def_67 .def_66 .def_65 .def_64 .def_63 .def_62 .def_61 .def_60 .def_59 .def_58 .def_57 .def_56 .def_55 .def_54 .def_53 .def_52 .def_51 .def_50 .def_49 .def_48 .def_47))) .def_68))))))))))))))))))))))))))))))))))))))))))))))))))))))))))))))))))))))
(check-sat)
